num_workers = 5;
num_tasks = 10;
P = 100;
N = 3;
cost = [|10,6,8,2,8,10,3,10,1,6|10,5,9,10,3,1,3,10,4,6|3,4,4,9,4,8,6,2,10,3|1,6,10,1,9,9,7,8,8,7|5,10,6,7,7,8,2,3,6,8|];
overqualification_cost = [3,4,1,4,2];
